N = 15;
M = 6;
T = 60;

R = [|
    4, 8, 3, 2, 6, 4, 2, 4, 5, 6, 7, 3, 4, 7, 2|
    4, 5, 7, 4, 5, 5, 5, 4, 5, 6, 4, 2, 8, 4, 3|
    5, 8, 4, 6, 5, 6, 2, 6, 2, 3, 5, 1, 7, 9, 3|
    6, 4, 4, 1, 7, 6, 7, 9, 6, 6, 7, 5, 8, 5, 3|
    5, 4, 2, 6, 8, 6, 6, 5, 4, 5, 6, 4, 4, 5, 4|
    3, 7, 4, 3, 8, 1, 2, 8, 2, 7, 5, 4, 5, 6, 5|];

D = [131, 682, 416, 325, 169, 197, 158, 17, 281, 399, 945, 608, 761, 568, 801];

tau = [38, 52, 13, 40, 5, 5, 51, 25, 30, 52, 36, 43, 49, 41, 46];